377
236
297
391
249
301
310
326
338
199
425
248
217
232
313
248
356
242
186
365
324
250
324
291
313
324
220
337
259
436
233
261
235
217
339
226
218
208
281
330
342
331
254
261
256
296
283
265
313
199
295
304
216
204
266
217
271
246
207
192
310
234
295
280
315
300
185
312
303
293
261
299
239
262
270
295
321
360
351
308
303
282
376
331
285
319
279
273
350
299
192
264
303
358
265
339
240
256
244
171
